Version identifier: 12.10.0.0 | 2019-11-26 | 843d4de
CPXPARAM_LPMethod                                4
CPXPARAM_Threads                                 1
CPXPARAM_SolutionType                            2
CPXPARAM_TimeLimit                               10000
Tried aggregator 1 time.
DUAL formed by presolve
LP Presolve eliminated 7748 rows and 24000 columns.
Aggregator did 874 substitutions.
Reduced LP has 18875 rows, 42874 columns, and 1372369 nonzeros.
Presolve time = 5.64 sec. (8078.87 ticks)
Parallel mode: none, using 1 thread for barrier
Number of nonzeros in lower triangle of A*A' = 1705870
Elapsed ordering time = 5.90 sec. (10002.61 ticks)
Using Approximate Minimum Degree ordering
Total time for automatic ordering = 6.95 sec. (11906.41 ticks)
Summary statistics for Cholesky factor:
  Rows in Factor            = 18875
  Integer space required    = 1336370
  Total non-zeros in factor = 1730745
  Total FP ops to factor    = 514095229
 Itn      Primal Obj        Dual Obj  Prim Inf Upper Inf  Dual Inf Inf Ratio
   0  -5.8530203e+09   5.9111004e+12  3.05e+05  0.00e+00  2.92e+11  1.00e+00
   1  -4.7741470e+09   3.1354612e+08  3.82e+03  2.68e-11  2.51e+08  8.37e-05
   2  -2.1573774e+07   8.7161956e+05  3.95e+01  6.60e-11  2.47e+04  4.87e-02
   3  -2.3574624e+04   3.3831560e+04  9.73e-02  9.19e-11  2.80e+03  6.83e+00
   4  -2.2437167e+03   2.3879124e+04  2.43e-02  3.90e-11  1.87e+03  4.57e+00
   5  -2.1987842e+03   2.3715171e+04  2.68e-02  7.58e-11  1.85e+03  4.60e+00
   6  -2.1133552e+03   2.3765805e+04  3.10e-02  7.19e-11  1.85e+03  4.60e+00
   7  -2.0990490e+03   2.3773192e+04  3.15e-02  1.22e-10  1.85e+03  4.59e+00
   8  -2.0852205e+03   2.3797256e+04  3.25e-02  7.14e-11  1.85e+03  4.59e+00
   9  -2.0949356e+03   2.3785817e+04  3.23e-02  7.26e-11  1.85e+03  4.59e+00
  10  -2.0948380e+03   2.3766670e+04  3.23e-02  8.16e-11  1.85e+03  4.59e+00
  11  -1.9317774e+03   2.3296362e+04  3.14e-02  8.45e-11  1.81e+03  4.59e+00
  12  -1.8302889e+03   5.5741232e+03  2.61e-02  6.82e-11  5.07e+02  1.20e+01
  13  -1.5187587e+03   1.7535577e+03  2.14e-02  6.28e-11  1.66e+02  1.49e+01
  14  -7.4506062e+02   5.4724641e+02  1.18e-02  3.84e-11  3.67e+01  5.59e+01
  15  -9.1986517e+01   3.0588538e+01  1.16e-03  1.46e-10  3.11e+00  1.27e+03
  16  -8.0579019e+00   2.0272142e+01  4.81e-04  5.28e-11  9.76e-01  2.10e+03
  17   2.2527863e+00   1.4490296e+01  1.87e-04  5.00e-11  5.66e-01  3.81e+03
  18   3.2685000e+00   8.3979898e+00  5.41e-05  1.05e-10  3.38e-01  7.96e+03
  19   3.1881478e+00   5.1242120e+00  1.65e-05  4.68e-11  1.48e-01  2.15e+04
  20   3.4622297e+00   4.0259821e+00  7.63e-06  5.80e-11  5.14e-02  7.75e+04
  21   3.5488888e+00   3.8494869e+00  1.15e-05  4.14e-11  2.84e-02  1.42e+05
  22   3.6142135e+00   3.6959300e+00  1.09e-05  9.27e-11  8.29e-03  5.01e+05
  23   3.6295852e+00   3.6539855e+00  5.86e-06  4.75e-11  2.63e-03  1.68e+06
  24   3.6337212e+00   3.6410966e+00  3.39e-06  9.04e-11  8.04e-04  5.95e+06
  25   3.6356061e+00   3.6374302e+00  1.71e-06  5.40e-11  2.54e-04  2.13e+07
  26   3.6358719e+00   3.6364043e+00  1.19e-06  7.55e-11  1.15e-04  8.01e+07
  27   3.6359956e+00   3.6362016e+00  9.93e-07  5.57e-11  7.67e-05  1.75e+08
  28   3.6360023e+00   3.6361784e+00  1.71e-06  5.40e-11  8.11e-05  2.03e+08
  29   3.6360224e+00   3.6360700e+00  2.63e-06  2.09e-10  6.16e-05  8.22e+08
  30   3.6360238e+00   3.6360611e+00  3.20e-06  6.68e-11  5.46e-05  1.10e+09
  31   3.6360243e+00   3.6360598e+00  3.15e-06  6.93e-11  5.36e-05  1.16e+09
  32   3.6360243e+00   3.6360596e+00  3.20e-06  1.96e-10  5.34e-05  1.17e+09
  33   3.6360244e+00   3.6360596e+00  3.25e-06  1.20e-10  6.61e-05  1.17e+09
  34   3.6360244e+00   3.6360596e+00  3.25e-06  1.06e-10  5.95e-05  1.17e+09
  35   3.6360244e+00   3.6360583e+00  3.25e-06  1.32e-10  5.69e-05  1.24e+09
  36   3.6360244e+00   3.6360581e+00  3.26e-06  1.22e-10  5.47e-05  1.25e+09
  37   3.6360246e+00   3.6360570e+00  3.41e-06  1.47e-10  5.57e-05  1.33e+09
  38   3.6360250e+00   3.6360539e+00  3.32e-06  1.32e-10  4.99e-05  1.55e+09
  39   3.6360267e+00   3.6360407e+00  2.78e-06  1.80e-10  5.99e-05  4.75e+09
  40   3.6360266e+00   3.6360406e+00  2.79e-06  1.28e-10  5.46e-05  4.75e+09
  41   3.6360271e+00   3.6360405e+00  3.98e-06  1.60e-10  5.98e-05  4.80e+09
  42   3.6360271e+00   3.6360402e+00  3.97e-06  2.44e-10  5.35e-05  5.04e+09
  43   3.6360272e+00   3.6360402e+00  4.13e-06  2.39e-10  5.17e-05  5.05e+09
  44   3.6360272e+00   3.6360402e+00  4.14e-06  2.71e-10  5.32e-05  5.05e+09
  45   3.6360274e+00   3.6360379e+00  4.04e-06  1.83e-10  5.67e-05  7.94e+09
  46   3.6360274e+00   3.6360379e+00  3.99e-06  2.11e-10  5.29e-05  7.94e+09
  47   3.6360274e+00   3.6360379e+00  4.01e-06  2.59e-10  5.32e-05  7.94e+09
  48   3.6360316e+00   3.6360374e+00  2.60e-06  2.78e-10  5.05e-05  8.81e+09
  49   3.6360316e+00   3.6360374e+00  2.62e-06  3.03e-10  5.47e-05  8.81e+09
  50   3.6360316e+00   3.6360374e+00  2.73e-06  3.06e-10  5.32e-05  8.82e+09
  51   3.6360316e+00   3.6360375e+00  3.28e-06  2.47e-10  5.26e-05  8.82e+09
  52   3.6360316e+00   3.6360375e+00  3.59e-06  3.48e-10  5.19e-05  8.82e+09
  53   3.6360317e+00   3.6360375e+00  3.43e-06  3.77e-10  7.08e-05  8.88e+09
  54   3.6360317e+00   3.6360375e+00  3.20e-06  2.74e-10  5.52e-05  8.88e+09
  55   3.6360317e+00   3.6360375e+00  3.21e-06  2.32e-10  5.07e-05  8.88e+09
  56   3.6360318e+00   3.6360374e+00  3.34e-06  3.40e-10  5.10e-05  9.03e+09
  57   3.6360319e+00   3.6360375e+00  3.52e-06  2.94e-10  5.28e-05  9.03e+09
  58   3.6360319e+00   3.6360372e+00  3.51e-06  2.74e-10  5.33e-05  9.78e+09
  59   3.6360325e+00   3.6360370e+00  3.02e-06  3.58e-10  5.16e-05  1.03e+10
  60   3.6360325e+00   3.6360370e+00  3.06e-06  4.10e-10  6.31e-05  1.03e+10
  61   3.6360325e+00   3.6360370e+00  3.11e-06  2.94e-10  5.85e-05  1.04e+10
  62   3.6360326e+00   3.6360370e+00  3.31e-06  4.27e-10  5.17e-05  1.05e+10
  63   3.6360326e+00   3.6360370e+00  3.33e-06  4.18e-10  4.79e-05  1.05e+10
  64   3.6360326e+00   3.6360370e+00  3.46e-06  4.40e-10  4.90e-05  1.05e+10
  65   3.6360326e+00   3.6360370e+00  3.45e-06  2.92e-10  4.81e-05  1.05e+10
  66   3.6360326e+00   3.6360369e+00  3.47e-06  3.35e-10  4.70e-05  1.10e+10
  67   3.6360326e+00   3.6360369e+00  3.47e-06  3.91e-10  6.65e-05  1.10e+10
  68   3.6360326e+00   3.6360369e+00  3.47e-06  3.83e-10  5.65e-05  1.10e+10
  69   3.6360340e+00   3.6360358e+00  2.03e-06  8.35e-11  6.03e-05  1.96e+10
  70   3.6360340e+00   3.6360358e+00  2.03e-06  9.27e-11  5.37e-05  1.96e+10
  71   3.6360340e+00   3.6360358e+00  2.03e-06  1.08e-10  5.45e-05  1.96e+10
  72   3.6360340e+00   3.6360358e+00  2.13e-06  1.41e-10  4.82e-05  1.96e+10
  73   3.6360340e+00   3.6360358e+00  2.61e-06  1.26e-10  5.35e-05  1.96e+10
  74   3.6360340e+00   3.6360358e+00  2.66e-06  1.44e-10  4.74e-05  1.96e+10
  75   3.6360340e+00   3.6360358e+00  3.06e-06  1.39e-10  5.51e-05  1.96e+10
  76   3.6360340e+00   3.6360359e+00  3.06e-06  1.49e-10  4.72e-05  2.14e+10
  77   3.6360341e+00   3.6360354e+00  2.96e-06  1.60e-10  5.12e-05  3.00e+10
  78   3.6360341e+00   3.6360354e+00  2.95e-06  2.01e-10  5.13e-05  3.03e+10
  79   3.6360341e+00   3.6360354e+00  2.93e-06  1.95e-10  4.63e-05  3.07e+10
  80   3.6360341e+00   3.6360354e+00  3.33e-06  1.64e-10  4.50e-05  3.15e+10
  81   3.6360342e+00   3.6360353e+00  4.89e-06  2.46e-10  5.43e-05  3.39e+10
  82   3.6360342e+00   3.6360354e+00  4.83e-06  2.39e-10  4.73e-05  3.40e+10
  83   3.6360342e+00   3.6360354e+00  4.80e-06  1.81e-10  4.60e-05  3.40e+10
  84   3.6360342e+00   3.6360353e+00  4.80e-06  2.73e-10  4.73e-05  3.40e+10
  85   3.6360342e+00   3.6360353e+00  4.83e-06  2.15e-10  4.61e-05  3.40e+10
  86   3.6360342e+00   3.6360353e+00  4.83e-06  2.17e-10  4.63e-05  3.40e+10
  87   3.6360342e+00   3.6360353e+00  4.83e-06  2.95e-10  4.56e-05  3.40e+10
  88   3.6360342e+00   3.6360354e+00  4.83e-06  3.25e-10  4.45e-05  3.47e+10
  89   3.6360342e+00   3.6360354e+00  4.83e-06  3.24e-10  4.61e-05  3.47e+10
  90   3.6360342e+00   3.6360354e+00  5.02e-06  4.14e-10  5.81e-05  3.50e+10
  91   3.6360342e+00   3.6360354e+00  6.91e-06  4.93e-10  7.05e-05  3.50e+10
  92   3.6360342e+00   3.6360354e+00  6.91e-06  5.08e-10  6.12e-05  3.51e+10
  93   3.6360342e+00   3.6360354e+00  6.90e-06  4.83e-10  4.87e-05  3.56e+10
  94   3.6360342e+00   3.6360354e+00  6.90e-06  5.20e-10  4.65e-05  3.56e+10
  95   3.6360342e+00   3.6360354e+00  6.95e-06  5.72e-10  6.00e-05  3.56e+10
  96   3.6360342e+00   3.6360354e+00  7.03e-06  4.38e-10  5.97e-05  3.57e+10
  97   3.6360342e+00   3.6360354e+00  7.03e-06  4.00e-10  4.65e-05  3.57e+10
  98   3.6360342e+00   3.6360354e+00  7.02e-06  5.16e-10  5.27e-05  3.57e+10
  99   3.6360342e+00   3.6360354e+00  7.02e-06  3.49e-10  4.46e-05  3.57e+10
 100   3.6360342e+00   3.6360354e+00  7.26e-06  4.62e-10  4.87e-05  3.62e+10
 101   3.6360342e+00   3.6360354e+00  7.26e-06  4.90e-10  4.56e-05  3.62e+10
  *    3.6360340e+00   3.6360358e+00  2.03e-06  9.27e-11  5.37e-05  1.96e+10
Barrier time = 71.00 sec. (139439.30 ticks)

Total time on 1 threads = 71.00 sec. (139439.30 ticks)
Solver name: CPLEX
Solve time: 70.998942914
Termination status: OTHER_ERROR
Result count: 1
Primal status: FEASIBLE_POINT
Dual status: FEASIBLE_POINT
